NAME: ACTUAL_TOURS/amz2619
TYPE: TOUR
COMMENT: RouteID_504cdd34-4c2d-46be-9b7b-e7102444a119
DIMENSION: 199
TOUR_SECTION
137
150
62
89
33
143
4
142
151
125
56
43
42
185
77
122
106
57
28
2
27
31
72
196
155
153
130
157
118
74
116
193
166
51
154
55
152
34
188
101
171
21
109
99
49
102
163
61
26
47
113
53
192
164
18
147
162
179
15
134
141
180
191
184
73
145
25
39
35
76
174
75
177
29
91
156
12
144
176
115
140
170
88
129
139
159
8
84
132
138
175
103
135
167
97
23
32
136
67
5
183
133
182
87
190
22
189
173
59
81
146
64
78
123
117
108
94
50
105
38
104
169
37
198
195
65
13
20
70
69
71
80
82
114
124
126
187
98
127
17
68
120
172
16
54
161
46
30
40
24
194
85
119
112
41
199
160
1
66
121
19
79
60
7
9
131
149
36
100
111
128
158
58
11
86
6
90
52
10
96
14
63
93
44
181
48
165
3
178
92
197
168
186
107
148
45
95
83
110
-1
EOF
